p edge 200 1990
p 1 26
p 1 37
p 1 55
p 1 64
p 1 76
p 1 111
p 1 144
p 1 149
p 1 150
p 1 158
p 1 167
p 1 172
p 1 192
p 1 200
p 2 17
p 2 36
p 2 37
p 2 48
p 2 69
p 2 77
p 2 79
p 2 82
p 2 99
p 2 100
p 2 110
p 2 111
p 2 118
p 2 129
p 2 131
p 2 141
p 2 146
p 2 151
p 2 159
p 2 160
p 2 166
p 2 168
p 2 172
p 2 186
p 2 199
p 3 7
p 3 11
p 3 15
p 3 16
p 3 19
p 3 21
p 3 22
p 3 34
p 3 80
p 3 88
p 3 105
p 3 117
p 3 142
p 3 151
p 3 162
p 3 198
p 4 12
p 4 20
p 4 25
p 4 26
p 4 30
p 4 33
p 4 35
p 4 40
p 4 49
p 4 73
p 4 76
p 4 78
p 4 85
p 4 91
p 4 94
p 4 104
p 4 105
p 4 113
p 4 128
p 4 137
p 4 139
p 4 145
p 4 146
p 4 157
p 4 161
p 4 175
p 4 199
p 5 8
p 5 22
p 5 29
p 5 32
p 5 37
p 5 53
p 5 98
p 5 100
p 5 103
p 5 104
p 5 132
p 5 136
p 5 142
p 5 148
p 5 149
p 5 152
p 5 171
p 5 172
p 5 173
p 5 174
p 5 186
p 5 189
p 5 191
p 6 16
p 6 29
p 6 32
p 6 43
p 6 68
p 6 70
p 6 75
p 6 80
p 6 97
p 6 106
p 6 125
p 6 140
p 6 142
p 6 151
p 6 153
p 6 168
p 6 176
p 7 10
p 7 11
p 7 20
p 7 32
p 7 41
p 7 42
p 7 43
p 7 51
p 7 70
p 7 73
p 7 77
p 7 85
p 7 97
p 7 108
p 7 117
p 7 138
p 7 145
p 7 150
p 7 162
p 7 171
p 7 172
p 7 182
p 7 189
p 8 20
p 8 23
p 8 26
p 8 30
p 8 43
p 8 62
p 8 65
p 8 78
p 8 79
p 8 90
p 8 126
p 8 130
p 8 136
p 8 147
p 8 168
p 8 169
p 8 171
p 8 173
p 8 189
p 9 10
p 9 14
p 9 16
p 9 22
p 9 28
p 9 33
p 9 44
p 9 57
p 9 64
p 9 82
p 9 132
p 9 135
p 9 139
p 9 154
p 9 156
p 9 182
p 9 186
p 9 197
p 10 14
p 10 18
p 10 25
p 10 26
p 10 31
p 10 32
p 10 39
p 10 41
p 10 46
p 10 68
p 10 78
p 10 82
p 10 86
p 10 88
p 10 94
p 10 119
p 10 124
p 10 131
p 10 133
p 10 142
p 10 146
p 10 163
p 10 164
p 10 196
p 10 199
p 11 19
p 11 46
p 11 68
p 11 78
p 11 89
p 11 96
p 11 114
p 11 115
p 11 116
p 11 146
p 11 164
p 11 167
p 11 171
p 11 174
p 11 180
p 11 181
p 11 182
p 11 184
p 11 189
p 11 197
p 12 31
p 12 38
p 12 46
p 12 48
p 12 72
p 12 75
p 12 80
p 12 102
p 12 130
p 12 140
p 12 151
p 12 152
p 12 162
p 12 166
p 12 196
p 13 24
p 13 26
p 13 35
p 13 41
p 13 46
p 13 49
p 13 64
p 13 88
p 13 111
p 13 127
p 13 146
p 13 172
p 13 182
p 14 34
p 14 44
p 14 47
p 14 49
p 14 59
p 14 120
p 14 127
p 14 134
p 14 140
p 14 156
p 14 168
p 14 185
p 14 189
p 14 194
p 15 23
p 15 44
p 15 48
p 15 59
p 15 66
p 15 85
p 15 97
p 15 98
p 15 99
p 15 122
p 15 125
p 15 126
p 15 131
p 15 138
p 15 160
p 15 184
p 15 189
p 15 200
p 16 26
p 16 33
p 16 50
p 16 54
p 16 71
p 16 75
p 16 111
p 16 112
p 16 116
p 16 131
p 16 145
p 16 170
p 16 175
p 16 181
p 16 187
p 16 199
p 16 200
p 17 31
p 17 36
p 17 54
p 17 66
p 17 69
p 17 86
p 17 88
p 17 92
p 17 97
p 17 103
p 17 124
p 17 125
p 17 131
p 17 137
p 17 154
p 17 155
p 17 165
p 17 186
p 17 187
p 17 197
p 17 199
p 18 36
p 18 49
p 18 60
p 18 76
p 18 78
p 18 86
p 18 90
p 18 94
p 18 98
p 18 117
p 18 135
p 18 156
p 18 157
p 18 158
p 18 170
p 19 24
p 19 42
p 19 48
p 19 55
p 19 60
p 19 63
p 19 80
p 19 90
p 19 101
p 19 102
p 19 125
p 19 130
p 19 150
p 19 158
p 19 162
p 19 200
p 20 31
p 20 35
p 20 37
p 20 65
p 20 67
p 20 68
p 20 78
p 20 80
p 20 81
p 20 86
p 20 99
p 20 108
p 20 116
p 20 119
p 20 125
p 20 131
p 20 142
p 20 146
p 20 147
p 20 155
p 20 184
p 20 191
p 20 200
p 21 22
p 21 28
p 21 31
p 21 32
p 21 46
p 21 49
p 21 56
p 21 105
p 21 109
p 21 132
p 21 196
p 22 23
p 22 46
p 22 53
p 22 75
p 22 78
p 22 104
p 22 105
p 22 122
p 22 146
p 22 159
p 22 164
p 22 174
p 22 175
p 22 179
p 22 180
p 22 184
p 22 194
p 22 197
p 23 25
p 23 31
p 23 39
p 23 41
p 23 44
p 23 60
p 23 63
p 23 68
p 23 95
p 23 96
p 23 108
p 23 112
p 23 114
p 23 121
p 23 124
p 23 125
p 23 129
p 23 131
p 23 157
p 23 159
p 23 162
p 23 164
p 23 173
p 23 177
p 23 180
p 23 181
p 23 184
p 23 185
p 24 27
p 24 28
p 24 33
p 24 35
p 24 37
p 24 60
p 24 61
p 24 62
p 24 76
p 24 87
p 24 108
p 24 114
p 24 123
p 24 124
p 24 128
p 24 137
p 24 144
p 24 146
p 24 165
p 24 178
p 24 188
p 24 195
p 24 198
p 24 199
p 25 37
p 25 38
p 25 40
p 25 49
p 25 52
p 25 54
p 25 57
p 25 87
p 25 101
p 25 103
p 25 109
p 25 118
p 25 122
p 25 126
p 25 134
p 25 136
p 25 148
p 25 157
p 25 173
p 25 181
p 25 183
p 25 189
p 25 190
p 26 29
p 26 40
p 26 55
p 26 56
p 26 61
p 26 65
p 26 75
p 26 90
p 26 102
p 26 115
p 26 118
p 26 127
p 26 130
p 26 133
p 26 140
p 26 150
p 26 154
p 26 165
p 26 172
p 26 185
p 26 200
p 27 38
p 27 48
p 27 54
p 27 55
p 27 94
p 27 97
p 27 114
p 27 136
p 27 139
p 27 141
p 27 142
p 27 148
p 27 157
p 27 172
p 27 188
p 28 32
p 28 33
p 28 37
p 28 39
p 28 56
p 28 85
p 28 88
p 28 93
p 28 95
p 28 111
p 28 137
p 28 138
p 28 180
p 28 194
p 29 35
p 29 39
p 29 47
p 29 48
p 29 57
p 29 77
p 29 82
p 29 85
p 29 88
p 29 102
p 29 106
p 29 111
p 29 130
p 29 168
p 29 169
p 29 182
p 30 32
p 30 47
p 30 53
p 30 54
p 30 59
p 30 71
p 30 98
p 30 102
p 30 109
p 30 112
p 30 120
p 30 122
p 30 126
p 30 128
p 30 142
p 30 152
p 30 167
p 30 178
p 31 54
p 31 79
p 31 86
p 31 96
p 31 102
p 31 123
p 31 130
p 31 160
p 31 166
p 31 175
p 31 191
p 31 200
p 32 34
p 32 43
p 32 48
p 32 57
p 32 67
p 32 69
p 32 77
p 32 89
p 32 109
p 32 129
p 32 143
p 32 144
p 32 156
p 32 165
p 32 166
p 32 194
p 32 195
p 33 40
p 33 58
p 33 68
p 33 72
p 33 87
p 33 101
p 33 127
p 33 148
p 33 155
p 33 179
p 33 185
p 33 188
p 33 195
p 34 46
p 34 47
p 34 49
p 34 51
p 34 65
p 34 66
p 34 91
p 34 96
p 34 110
p 34 117
p 34 128
p 34 141
p 34 144
p 34 162
p 34 187
p 34 194
p 35 40
p 35 54
p 35 57
p 35 61
p 35 75
p 35 80
p 35 84
p 35 92
p 35 136
p 35 141
p 35 149
p 35 152
p 35 158
p 35 161
p 35 173
p 35 181
p 35 191
p 35 196
p 36 42
p 36 45
p 36 83
p 36 85
p 36 87
p 36 100
p 36 110
p 36 115
p 36 118
p 36 134
p 36 160
p 36 167
p 36 171
p 36 176
p 36 186
p 36 196
p 37 45
p 37 58
p 37 70
p 37 71
p 37 98
p 37 100
p 37 107
p 37 115
p 37 123
p 37 140
p 37 142
p 37 150
p 37 178
p 37 182
p 37 185
p 38 44
p 38 54
p 38 60
p 38 75
p 38 82
p 38 92
p 38 95
p 38 102
p 38 106
p 38 117
p 38 124
p 38 127
p 38 138
p 38 139
p 38 148
p 38 158
p 39 60
p 39 108
p 39 112
p 39 143
p 39 147
p 39 163
p 39 165
p 39 167
p 39 175
p 39 196
p 39 199
p 40 47
p 40 48
p 40 54
p 40 70
p 40 80
p 40 87
p 40 108
p 40 118
p 40 130
p 40 140
p 40 144
p 40 145
p 40 167
p 40 177
p 40 179
p 40 184
p 40 185
p 40 187
p 41 46
p 41 49
p 41 52
p 41 53
p 41 68
p 41 94
p 41 102
p 41 103
p 41 108
p 41 112
p 41 124
p 41 127
p 41 136
p 41 139
p 41 149
p 41 155
p 41 170
p 41 180
p 41 193
p 41 195
p 42 59
p 42 62
p 42 70
p 42 71
p 42 88
p 42 95
p 42 101
p 42 107
p 42 117
p 42 124
p 42 134
p 42 146
p 42 147
p 42 148
p 42 150
p 42 176
p 42 177
p 42 181
p 42 185
p 42 189
p 42 192
p 43 54
p 43 59
p 43 64
p 43 72
p 43 82
p 43 83
p 43 91
p 43 94
p 43 101
p 43 111
p 43 120
p 44 48
p 44 51
p 44 78
p 44 82
p 44 91
p 44 112
p 44 129
p 44 140
p 44 154
p 44 156
p 44 165
p 44 173
p 44 174
p 44 179
p 44 185
p 44 190
p 44 199
p 45 64
p 45 81
p 45 94
p 45 143
p 45 150
p 45 167
p 45 170
p 45 171
p 45 175
p 45 200
p 46 66
p 46 70
p 46 82
p 46 83
p 46 96
p 46 102
p 46 135
p 46 137
p 46 148
p 46 166
p 46 171
p 47 64
p 47 67
p 47 73
p 47 74
p 47 95
p 47 107
p 47 122
p 47 135
p 47 142
p 47 147
p 47 148
p 47 153
p 47 154
p 47 165
p 47 177
p 47 198
p 47 200
p 48 54
p 48 76
p 48 78
p 48 85
p 48 91
p 48 97
p 48 98
p 48 105
p 48 111
p 48 125
p 48 138
p 48 141
p 48 161
p 48 174
p 48 175
p 48 176
p 48 184
p 48 186
p 48 188
p 48 191
p 48 193
p 48 199
p 48 200
p 49 53
p 49 66
p 49 76
p 49 81
p 49 86
p 49 108
p 49 112
p 49 117
p 49 119
p 49 124
p 49 126
p 49 127
p 49 128
p 49 136
p 49 144
p 49 149
p 49 151
p 49 154
p 49 191
p 49 199
p 50 60
p 50 62
p 50 79
p 50 85
p 50 115
p 50 141
p 50 145
p 50 147
p 50 176
p 50 190
p 51 61
p 51 66
p 51 79
p 51 81
p 51 98
p 51 106
p 51 117
p 51 120
p 51 128
p 51 158
p 51 160
p 51 164
p 51 187
p 52 71
p 52 76
p 52 81
p 52 88
p 52 99
p 52 113
p 52 117
p 52 118
p 52 136
p 52 155
p 52 161
p 52 185
p 52 196
p 53 56
p 53 60
p 53 63
p 53 73
p 53 77
p 53 88
p 53 90
p 53 96
p 53 100
p 53 106
p 53 113
p 53 115
p 53 116
p 53 125
p 53 127
p 53 144
p 53 148
p 53 150
p 53 151
p 53 167
p 53 192
p 54 67
p 54 75
p 54 81
p 54 88
p 54 113
p 54 125
p 54 126
p 54 138
p 54 139
p 54 151
p 54 163
p 54 177
p 54 182
p 54 184
p 54 189
p 54 192
p 54 193
p 55 75
p 55 82
p 55 85
p 55 135
p 55 143
p 55 158
p 55 159
p 55 180
p 55 182
p 55 190
p 55 192
p 55 199
p 56 70
p 56 107
p 56 108
p 56 113
p 56 117
p 56 118
p 56 125
p 56 128
p 56 130
p 56 138
p 56 142
p 56 174
p 56 186
p 57 81
p 57 82
p 57 90
p 57 93
p 57 111
p 57 113
p 57 127
p 57 143
p 57 144
p 57 153
p 57 162
p 57 185
p 57 187
p 57 188
p 57 189
p 57 191
p 57 192
p 57 196
p 58 61
p 58 78
p 58 79
p 58 144
p 58 148
p 58 174
p 58 182
p 58 195
p 58 196
p 59 73
p 59 83
p 59 104
p 59 117
p 59 142
p 59 155
p 59 166
p 59 175
p 59 183
p 59 192
p 59 194
p 59 198
p 60 77
p 60 99
p 60 125
p 60 140
p 60 153
p 60 164
p 60 177
p 60 188
p 60 190
p 61 62
p 61 63
p 61 79
p 61 80
p 61 84
p 61 112
p 61 125
p 61 129
p 61 151
p 61 159
p 61 167
p 61 177
p 61 189
p 62 66
p 62 68
p 62 70
p 62 85
p 62 112
p 62 119
p 62 126
p 62 128
p 62 134
p 62 139
p 62 153
p 62 158
p 62 171
p 62 172
p 62 176
p 62 180
p 62 189
p 63 77
p 63 89
p 63 144
p 63 154
p 63 160
p 63 193
p 64 85
p 64 92
p 64 98
p 64 99
p 64 108
p 64 118
p 64 119
p 64 125
p 64 133
p 64 135
p 64 149
p 64 150
p 64 153
p 64 157
p 64 167
p 64 171
p 64 178
p 64 184
p 64 196
p 65 66
p 65 78
p 65 91
p 65 98
p 65 116
p 65 152
p 65 161
p 65 165
p 65 176
p 65 179
p 65 188
p 65 191
p 65 196
p 66 81
p 66 82
p 66 84
p 66 96
p 66 98
p 66 130
p 66 132
p 66 143
p 66 144
p 66 170
p 66 179
p 66 180
p 66 183
p 66 188
p 66 192
p 67 71
p 67 75
p 67 98
p 67 110
p 67 112
p 67 124
p 67 135
p 67 154
p 67 165
p 67 172
p 67 174
p 67 180
p 67 191
p 67 200
p 68 79
p 68 81
p 68 88
p 68 91
p 68 96
p 68 99
p 68 113
p 68 114
p 68 143
p 68 149
p 68 157
p 68 163
p 68 170
p 68 171
p 68 172
p 68 193
p 68 194
p 68 197
p 68 198
p 69 72
p 69 74
p 69 83
p 69 94
p 69 98
p 69 99
p 69 126
p 69 131
p 69 134
p 69 135
p 69 140
p 69 179
p 69 180
p 69 185
p 69 186
p 69 195
p 69 196
p 70 107
p 70 131
p 70 150
p 70 167
p 70 168
p 70 182
p 70 189
p 71 76
p 71 81
p 71 86
p 71 96
p 71 98
p 71 102
p 71 104
p 71 106
p 71 107
p 71 121
p 71 122
p 71 123
p 71 126
p 71 136
p 71 143
p 71 146
p 71 151
p 71 154
p 71 155
p 71 156
p 71 161
p 71 163
p 71 176
p 71 177
p 71 182
p 71 184
p 71 188
p 71 189
p 71 198
p 72 84
p 72 87
p 72 107
p 72 116
p 72 124
p 72 129
p 72 130
p 72 133
p 72 137
p 72 139
p 72 143
p 72 144
p 72 159
p 72 163
p 72 180
p 72 184
p 72 199
p 73 74
p 73 103
p 73 122
p 73 135
p 73 136
p 73 155
p 73 179
p 73 190
p 74 76
p 74 96
p 74 103
p 74 108
p 74 131
p 74 135
p 74 139
p 74 146
p 74 155
p 74 180
p 74 182
p 74 186
p 75 109
p 75 110
p 75 111
p 75 119
p 75 124
p 75 128
p 75 172
p 75 179
p 75 182
p 75 185
p 75 200
p 76 85
p 76 94
p 76 99
p 76 100
p 76 108
p 76 120
p 76 128
p 76 130
p 76 141
p 76 151
p 76 154
p 76 162
p 76 172
p 76 173
p 76 176
p 76 181
p 77 84
p 77 85
p 77 102
p 77 112
p 77 172
p 77 184
p 77 191
p 77 193
p 78 90
p 78 97
p 78 114
p 78 121
p 78 128
p 78 138
p 78 145
p 78 150
p 78 153
p 78 154
p 78 171
p 78 178
p 78 180
p 79 94
p 79 97
p 79 98
p 79 115
p 79 119
p 79 124
p 79 150
p 79 156
p 79 157
p 79 170
p 79 171
p 79 176
p 79 178
p 79 183
p 79 191
p 79 196
p 80 97
p 80 110
p 80 121
p 80 135
p 80 140
p 80 143
p 80 144
p 80 150
p 80 152
p 80 162
p 80 168
p 80 183
p 80 193
p 80 196
p 80 197
p 81 85
p 81 102
p 81 124
p 81 126
p 81 131
p 81 140
p 81 170
p 81 171
p 81 174
p 81 186
p 81 193
p 82 83
p 82 115
p 82 120
p 82 148
p 82 155
p 82 171
p 82 180
p 82 181
p 82 185
p 83 86
p 83 90
p 83 120
p 83 123
p 83 135
p 83 158
p 83 161
p 83 172
p 83 174
p 83 185
p 84 116
p 84 117
p 84 121
p 84 129
p 84 142
p 84 146
p 84 158
p 84 160
p 84 163
p 84 175
p 84 197
p 85 95
p 85 97
p 85 129
p 85 131
p 85 139
p 85 140
p 85 160
p 85 184
p 85 185
p 85 188
p 86 87
p 86 112
p 86 115
p 86 119
p 86 127
p 86 130
p 86 133
p 86 138
p 86 150
p 86 157
p 86 165
p 86 167
p 86 170
p 86 179
p 86 183
p 86 191
p 86 194
p 86 195
p 87 88
p 87 95
p 87 97
p 87 121
p 87 123
p 87 125
p 87 144
p 87 153
p 87 162
p 87 163
p 87 181
p 87 199
p 88 98
p 88 103
p 88 112
p 88 114
p 88 140
p 88 161
p 88 162
p 88 165
p 88 172
p 88 174
p 88 178
p 88 180
p 88 184
p 88 185
p 88 194
p 89 120
p 89 148
p 89 154
p 89 157
p 89 161
p 89 193
p 90 92
p 90 96
p 90 104
p 90 109
p 90 119
p 90 121
p 90 133
p 90 168
p 90 177
p 90 179
p 90 198
p 91 97
p 91 98
p 91 106
p 91 115
p 91 118
p 91 120
p 91 133
p 91 142
p 91 149
p 91 157
p 91 186
p 91 188
p 91 189
p 91 191
p 91 196
p 92 94
p 92 101
p 92 108
p 92 117
p 92 162
p 92 167
p 92 174
p 92 185
p 93 94
p 93 105
p 93 108
p 93 114
p 93 127
p 93 130
p 93 131
p 93 141
p 93 148
p 93 150
p 93 188
p 93 195
p 94 104
p 94 113
p 94 115
p 94 136
p 94 140
p 94 148
p 94 155
p 94 172
p 94 184
p 94 194
p 94 195
p 94 199
p 95 115
p 95 122
p 95 130
p 95 137
p 95 138
p 95 140
p 95 155
p 95 162
p 95 165
p 95 171
p 95 179
p 95 183
p 96 100
p 96 112
p 96 118
p 96 125
p 96 135
p 96 148
p 96 165
p 96 166
p 96 172
p 96 185
p 97 113
p 97 122
p 97 125
p 97 144
p 97 184
p 97 188
p 98 122
p 98 135
p 98 139
p 98 143
p 98 146
p 98 159
p 98 172
p 98 175
p 98 179
p 98 183
p 98 194
p 99 115
p 99 116
p 99 136
p 99 152
p 99 164
p 99 171
p 99 177
p 99 186
p 99 190
p 99 197
p 100 104
p 100 132
p 100 161
p 100 173
p 100 176
p 100 180
p 100 186
p 100 188
p 101 108
p 101 115
p 101 118
p 101 125
p 101 147
p 101 149
p 101 177
p 101 199
p 102 109
p 102 113
p 102 125
p 102 130
p 102 132
p 102 144
p 102 166
p 102 172
p 102 194
p 102 197
p 103 165
p 103 166
p 103 194
p 104 114
p 104 120
p 104 125
p 104 135
p 104 137
p 104 145
p 104 149
p 104 150
p 104 155
p 104 175
p 104 179
p 104 180
p 104 183
p 104 184
p 104 190
p 104 191
p 104 192
p 105 123
p 105 131
p 105 146
p 105 153
p 105 177
p 106 111
p 106 128
p 106 155
p 106 167
p 106 176
p 106 187
p 107 110
p 107 114
p 107 124
p 107 130
p 107 134
p 107 145
p 107 153
p 107 156
p 107 168
p 107 172
p 107 173
p 107 183
p 107 196
p 108 129
p 108 139
p 108 146
p 108 147
p 108 155
p 108 157
p 108 161
p 108 167
p 108 180
p 108 188
p 108 189
p 108 199
p 109 126
p 109 148
p 109 157
p 109 158
p 109 178
p 109 180
p 109 195
p 109 200
p 110 123
p 110 124
p 111 135
p 111 150
p 111 161
p 111 170
p 111 174
p 111 181
p 111 185
p 111 188
p 111 194
p 112 124
p 112 134
p 112 169
p 112 171
p 112 180
p 112 182
p 112 197
p 112 198
p 112 200
p 113 118
p 113 119
p 113 131
p 113 134
p 113 139
p 113 154
p 113 156
p 113 173
p 113 189
p 113 193
p 114 155
p 114 165
p 114 180
p 114 197
p 115 117
p 115 141
p 115 143
p 115 151
p 115 161
p 115 175
p 115 176
p 115 184
p 115 198
p 116 125
p 116 134
p 116 139
p 116 140
p 116 150
p 116 157
p 116 161
p 116 165
p 116 184
p 116 185
p 116 191
p 116 200
p 117 119
p 117 122
p 117 124
p 117 138
p 117 139
p 117 158
p 117 162
p 117 167
p 117 183
p 117 185
p 117 191
p 118 131
p 118 136
p 118 143
p 118 144
p 118 175
p 119 132
p 119 133
p 119 139
p 119 140
p 119 146
p 119 164
p 119 173
p 119 174
p 120 144
p 120 147
p 120 187
p 120 192
p 121 142
p 121 163
p 121 179
p 122 124
p 122 128
p 122 145
p 122 146
p 122 170
p 122 194
p 123 126
p 123 128
p 123 130
p 123 140
p 123 166
p 123 172
p 123 190
p 123 194
p 123 196
p 124 130
p 124 135
p 124 138
p 124 197
p 125 132
p 125 144
p 125 150
p 125 163
p 125 170
p 125 172
p 125 177
p 125 187
p 125 197
p 126 127
p 126 129
p 126 132
p 126 148
p 126 153
p 126 172
p 126 174
p 126 178
p 126 179
p 126 186
p 126 194
p 126 197
p 126 200
p 127 143
p 127 146
p 127 153
p 127 163
p 127 164
p 127 181
p 127 195
p 128 130
p 128 135
p 128 146
p 128 147
p 128 175
p 128 179
p 128 183
p 128 185
p 128 187
p 128 192
p 128 199
p 129 132
p 129 133
p 129 140
p 129 149
p 129 151
p 129 162
p 129 176
p 129 183
p 130 137
p 130 151
p 130 159
p 130 161
p 130 163
p 130 169
p 130 171
p 130 175
p 130 178
p 130 191
p 131 135
p 131 149
p 131 168
p 131 177
p 131 179
p 132 136
p 132 154
p 132 161
p 132 172
p 132 173
p 132 182
p 132 189
p 132 193
p 132 197
p 133 172
p 133 177
p 134 136
p 134 140
p 134 148
p 134 150
p 134 153
p 134 160
p 134 163
p 134 169
p 134 175
p 134 177
p 134 179
p 134 198
p 135 143
p 135 151
p 135 180
p 135 198
p 136 167
p 136 189
p 137 138
p 137 157
p 137 167
p 137 179
p 137 188
p 138 140
p 138 143
p 138 179
p 138 186
p 138 187
p 138 188
p 139 143
p 139 146
p 139 147
p 139 172
p 140 145
p 140 146
p 140 158
p 140 184
p 141 147
p 141 155
p 141 168
p 141 179
p 141 183
p 141 194
p 142 152
p 142 163
p 142 185
p 143 149
p 143 156
p 143 157
p 143 158
p 143 162
p 143 167
p 143 168
p 143 178
p 143 185
p 143 195
p 144 153
p 144 162
p 144 166
p 144 168
p 144 181
p 144 184
p 145 181
p 145 199
p 146 155
p 146 161
p 146 162
p 146 184
p 146 193
p 147 152
p 147 154
p 147 158
p 147 165
p 147 183
p 147 194
p 148 157
p 148 159
p 148 164
p 148 167
p 148 171
p 148 175
p 148 185
p 148 187
p 148 190
p 148 192
p 148 194
p 148 195
p 149 153
p 149 161
p 149 168
p 149 182
p 149 190
p 150 163
p 150 167
p 150 173
p 150 182
p 151 157
p 151 166
p 151 192
p 152 162
p 152 190
p 152 195
p 152 196
p 153 166
p 153 172
p 153 177
p 153 182
p 153 187
p 153 196
p 153 200
p 154 175
p 154 193
p 154 200
p 155 163
p 155 168
p 155 175
p 155 186
p 155 188
p 155 197
p 155 199
p 155 200
p 156 157
p 156 168
p 156 172
p 156 176
p 157 184
p 157 192
p 158 173
p 158 175
p 158 184
p 158 186
p 158 188
p 158 192
p 158 198
p 159 172
p 159 174
p 159 200
p 160 169
p 160 171
p 160 178
p 160 186
p 160 191
p 161 170
p 161 177
p 161 178
p 161 195
p 161 196
p 161 200
p 162 164
p 162 170
p 162 185
p 162 195
p 163 173
p 163 179
p 164 171
p 164 174
p 164 183
p 164 189
p 164 190
p 164 195
p 165 166
p 165 171
p 165 179
p 165 190
p 165 191
p 165 197
p 165 198
p 166 179
p 166 180
p 166 186
p 166 196
p 167 169
p 167 191
p 167 193
p 168 169
p 168 171
p 168 173
p 168 182
p 168 184
p 168 185
p 169 198
p 169 200
p 170 171
p 170 175
p 171 192
p 171 198
p 171 199
p 172 175
p 172 192
p 173 179
p 174 200
p 176 178
p 176 192
p 176 194
p 177 193
p 179 180
p 179 182
p 179 188
p 179 196
p 180 192
p 181 196
p 181 199
p 183 194
p 184 189
p 184 192
p 186 187
p 187 193
p 188 198
p 190 193
p 190 199
p 193 197